
Gurobi 10.0.1 (mac64[arm]) logging started Fri Mar 29 14:43:12 2024

Set parameter LogFile to value "/Users/deniserings/Documents/zib/s-bahn-data/scripts/DeniseMA/processed/BBUP_W/original/LP_based/BBUP_W_subgradient_202403291428act_.log"
Gurobi Optimizer version 10.0.1 build v10.0.1rc0 (mac64[arm])

CPU model: Apple M2
Thread count: 8 physical cores, 8 logical processors, using up to 8 threads

Optimize a model with 12753 rows, 5772 columns and 47738 nonzeros
Model fingerprint: 0x21faff56
Variable types: 2317 continuous, 3455 integer (649 binary)
Coefficient statistics:
  Matrix range     [1e+00, 4e+02]
  Objective range  [1e+00, 8e+02]
  Bounds range     [1e+00, 2e+02]
  RHS range        [1e+00, 5e+02]
Found heuristic solution: objective 897.0000000
Presolve removed 12609 rows and 5352 columns
Presolve time: 0.06s
Presolved: 144 rows, 420 columns, 576 nonzeros
Variable types: 276 continuous, 144 integer (144 binary)

Explored 0 nodes (0 simplex iterations) in 0.06 seconds (0.13 work units)
Thread count was 8 (of 8 available processors)

Solution count 1: 897 

Optimal solution found (tolerance 1.00e-04)
Best objective 8.970000000000e+02, best bound 8.970000000000e+02, gap 0.0000%

User-callback calls 955, time in user-callback 0.00 sec

Statistics for modelBBUP_W:
  Linear constraint matrix    : 12753 Constrs, 5772 Vars, 47738 NZs
  Variable types              : 2317 Continuous,
3455 Integer (649 Binary)
  Matrix coefficient range    : [ 1, 384 ]
  Objective coefficient range : [ 1, 774 ]
  Variable bound range        : [ 1, 199 ]
  RHS coefficient range       : [ 1, 549 ]

Gurobi 10.0.1 (mac64[arm]) logging started Fri Mar 29 14:43:12 2024

Set parameter LogFile to value "/Users/deniserings/Documents/zib/s-bahn-data/scripts/DeniseMA/processed/BBUP_W/original/LP_based/BBUP_W_subgradient_202403291428act_.log"
Gurobi Optimizer version 10.0.1 build v10.0.1rc0 (mac64[arm])

CPU model: Apple M2
Thread count: 8 physical cores, 8 logical processors, using up to 8 threads

Optimize a model with 12888 rows, 5772 columns and 48018 nonzeros
Model fingerprint: 0xe1aefcb8
Variable types: 2317 continuous, 3455 integer (649 binary)
Coefficient statistics:
  Matrix range     [1e+00, 4e+02]
  Objective range  [1e-01, 2e+04]
  Bounds range     [1e+00, 2e+02]
  RHS range        [1e+00, 5e+02]

User MIP start produced solution with objective 24503.8 (0.01s)
Loaded user MIP start with objective 24503.8

Presolve removed 4346 rows and 1075 columns
Presolve time: 0.04s
Presolved: 8542 rows, 4697 columns, 39313 nonzeros
Variable types: 1398 continuous, 3299 integer (3299 binary)

Root relaxation: objective 1.025661e+04, 2661 iterations, 0.01 seconds (0.01 work units)

    Nodes    |    Current Node    |     Objective Bounds      |     Work
 Expl Unexpl |  Obj  Depth IntInf | Incumbent    BestBd   Gap | It/Node Time

     0     0 10256.6072    0  167 24503.7686 10256.6072  58.1%     -    0s
H    0     0                    12693.172657 10256.6072  19.2%     -    0s
     0     0 10256.6072    0  408 12693.1727 10256.6072  19.2%     -    0s
H    0     0                    12432.108595 10256.6072  17.5%     -    0s
     0     0 10256.6072    0  590 12432.1086 10256.6072  17.5%     -    0s
     0     0 10256.6072    0  112 12432.1086 10256.6072  17.5%     -    0s
H    0     0                    12006.693555 10256.6072  14.6%     -    0s
     0     0 10256.6072    0  222 12006.6936 10256.6072  14.6%     -    0s
     0     0 10256.6072    0  149 12006.6936 10256.6072  14.6%     -    0s
H    0     0                    11685.342579 10256.6072  12.2%     -    0s
     0     0 10256.6072    0  197 11685.3426 10256.6072  12.2%     -    0s
     0     0 10256.6072    0  123 11685.3426 10256.6072  12.2%     -    1s
     0     0 10256.6072    0  281 11685.3426 10256.6072  12.2%     -    1s
     0     0 10256.6072    0  114 11685.3426 10256.6072  12.2%     -    1s
     0     0 10256.6072    0   99 11685.3426 10256.6072  12.2%     -    1s
H    0     0                    11456.331446 10256.6072  10.5%     -    1s
     0     2 10256.6072    0   90 11456.3314 10256.6072  10.5%     -    1s
H   31    40                    11414.331446 10256.6072  10.1%   291    1s
H   31    40                    11378.097462 10256.6072  9.86%   291    1s
H  166   244                    11291.512501 10256.6072  9.17%   171    2s
H  171   244                    11278.448438 10256.6072  9.06%   185    2s
H  171   244                    11273.629493 10256.6072  9.02%   185    2s
H  183   244                    11224.565430 10256.6072  8.62%   187    2s
H  255   399                    11120.682422 10256.6072  7.77%   158    3s
H  278   399                    11003.501368 10256.6072  6.79%   161    3s
H  356   399                    10955.852344 10256.6072  6.38%   139    3s
H  402   576                    10839.384375 10256.6072  5.38%   127    3s
H  438   576                    10761.554297 10256.6072  4.69%   127    3s
H  575  1036                    10609.671289 10256.6072  3.33%   112    4s
H  646  1036                    10536.671289 10256.6072  2.66%   113    4s
H 1037  1818                    10526.671289 10256.6072  2.57%  91.3    5s
H 1037  1787                    10490.554297 10256.6072  2.23%  91.3    5s
H 1304  1772                    10483.671289 10256.6072  2.17%  79.5    5s
H 1428  1772                    10463.788282 10256.6072  1.98%  75.2    5s
H 2038  2366                    10455.788282 10256.6072  1.90%  66.0    6s
H 2251  2359                    10445.788282 10256.6072  1.81%  63.4    6s
H 2313  2327                    10421.788282 10256.6072  1.58%  63.6    6s
H 2848  2813                    10383.788282 10256.6072  1.22%  61.6    7s
  3592  2719 10304.2563   62  135 10383.7883 10256.6072  1.22%  58.5   10s
H 3593  2583                    10359.905274 10256.6072  1.00%  58.4   10s
H 3593  2454                    10357.905274 10256.6072  0.98%  58.4   10s
H 3952  2731                    10352.022266 10256.6072  0.92%  73.6   13s
H 4143  3011                    10352.022264 10256.6072  0.92%  72.5   14s
H 4642  2730                    10332.139258 10256.6072  0.73%  69.1   15s
H 4658  2619                    10332.139254 10256.6072  0.73%  69.2   15s
H 6104  2891                    10326.139258 10256.6072  0.67%  67.8   18s
H 6171  2940                    10322.139258 10256.6072  0.63%  67.8   19s
  6427  3383 10257.5994   31  212 10322.1393 10256.6072  0.63%  67.7   20s

Cutting planes:
  Learned: 225
  Gomory: 82
  Cover: 99
  Implied bound: 4
  MIR: 39
  StrongCG: 8
  Flow cover: 217
  Network: 2
  RLT: 13
  Relax-and-lift: 1

Explored 7095 nodes (508944 simplex iterations) in 20.29 seconds (21.68 work units)
Thread count was 8 (of 8 available processors)

Solution count 10: 10322.1 10326.1 10332.1 ... 10421.8

Solve interrupted
Best objective 1.032213925816e+04, best bound 1.025660722686e+04, gap 0.6349%

User-callback calls 18289, time in user-callback 0.04 sec

Statistics for modelBBUP_W:
  Linear constraint matrix    : 12888 Constrs, 5772 Vars, 48018 NZs
  Variable types              : 2317 Continuous,
3455 Integer (649 Binary)
  Matrix coefficient range    : [ 1, 384 ]
  Objective coefficient range : [ 0.116992, 21008.4 ]
  Variable bound range        : [ 1, 199 ]
  RHS coefficient range       : [ 1, 549 ]

Gurobi 10.0.1 (mac64[arm]) logging started Fri Mar 29 14:43:32 2024

Set parameter LogFile to value "/Users/deniserings/Documents/zib/s-bahn-data/scripts/DeniseMA/processed/BBUP_W/original/LP_based/BBUP_W_subgradient_202403291428act_.log"
Gurobi Optimizer version 10.0.1 build v10.0.1rc0 (mac64[arm])

CPU model: Apple M2
Thread count: 8 physical cores, 8 logical processors, using up to 8 threads

Optimize a model with 13310 rows, 5772 columns and 48865 nonzeros
Model fingerprint: 0x776de72b
Variable types: 2317 continuous, 3455 integer (649 binary)
Coefficient statistics:
  Matrix range     [1e+00, 4e+02]
  Objective range  [1e+00, 2e+04]
  Bounds range     [1e+00, 2e+02]
  RHS range        [1e+00, 5e+02]

User MIP start produced solution with objective 15078.6 (0.00s)
Loaded user MIP start with objective 15078.6

Presolve removed 6254 rows and 1860 columns
Presolve time: 0.05s
Presolved: 7056 rows, 3912 columns, 25718 nonzeros
Variable types: 1034 continuous, 2878 integer (2878 binary)

Root relaxation: objective 1.178213e+04, 2643 iterations, 0.01 seconds (0.01 work units)

    Nodes    |    Current Node    |     Objective Bounds      |     Work
 Expl Unexpl |  Obj  Depth IntInf | Incumbent    BestBd   Gap | It/Node Time

     0     0 11782.1335    0  191 15078.6293 11782.1335  21.9%     -    0s
H    0     0                    14642.533953 11782.1335  19.5%     -    0s
     0     0 11782.1335    0  542 14642.5340 11782.1335  19.5%     -    0s
     0     0 11782.1335    0  492 14642.5340 11782.1335  19.5%     -    0s
H    0     0                    14559.476743 11782.1335  19.1%     -    0s
     0     0 11782.1335    0  188 14559.4767 11782.1335  19.1%     -    0s
     0     0 11782.1335    0  331 14559.4767 11782.1335  19.1%     -    0s
H    0     0                    14517.476743 11782.1335  18.8%     -    0s
     0     0 11782.1335    0  169 14517.4767 11782.1335  18.8%     -    0s
     0     0 11782.1335    0  271 14517.4767 11782.1335  18.8%     -    0s
H    0     0                    14514.514883 11782.1335  18.8%     -    0s
     0     0 11782.1335    0  179 14514.5149 11782.1335  18.8%     -    0s
H    0     0                    14503.476743 11782.1335  18.8%     -    0s
     0     0 11782.1335    0  156 14503.4767 11782.1335  18.8%     -    0s
H    0     2                    14469.495813 11782.1335  18.6%     -    1s
     0     2 11782.1335    0  156 14469.4958 11782.1335  18.6%     -    1s
H   31    40                    14443.495813 11782.1335  18.4%   302    1s
H   32    40                    14271.476743 11782.1335  17.4%   300    1s
H   37    40                    14270.476743 11782.1335  17.4%   261    1s
H   38    40                    14123.457674 11782.1335  16.6%   256    1s
H   73    79                    14109.457674 11782.1335  16.5%   167    1s
H  128   133                    13693.400464 11782.1335  14.0%   141    1s
H  204   226                    13630.381395 11782.1335  13.6%  98.2    1s
H  204   226                    13623.381395 11782.1335  13.5%  98.2    1s
H  206   226                    13595.381395 11782.1335  13.3%  97.5    1s
H  209   226                    13569.381395 11782.1335  13.2%  96.9    1s
H  220   226                    13541.381395 11782.1335  13.0%  94.0    1s
H  334   410                    13537.381395 11782.1335  13.0%  81.6    2s
H  354   410                    13500.381395 11782.1335  12.7%  80.1    2s
H  439   562                    13375.362325 11782.1335  11.9%  69.6    2s
H  640   692                    13361.362325 11782.1335  11.8%  59.7    2s
H  763  1073                    13271.343255 11782.1335  11.2%  57.5    3s
H 1211  1266                    13251.343255 11782.1335  11.1%  45.2    3s
H 1270  1266                    13211.343255 11782.1335  10.8%  44.0    3s
H 2277  1911                    13162.343255 11782.1335  10.5%  36.4    4s
  2285  1917 11920.1716   30  152 13162.3433 11782.1335  10.5%  36.2    5s
H 2324  1855                    13156.343255 11782.1335  10.4%  44.0    6s
H 2438  1843                    13152.343255 11782.1335  10.4%  43.5    6s
H 2454  1750                    13142.343255 11782.1335  10.3%  43.3    6s
H 2517  1753                    13140.343255 11782.1335  10.3%  43.2    6s
H 2763  1900                    13136.343255 11782.1335  10.3%  42.2    7s
H 3182  1986                    13129.343255 11782.1335  10.3%  39.3    7s
  5878  3531 11782.1335   17  116 13129.3433 11782.1335  10.3%  31.4   10s
H 6347  3315                    13128.343255 11782.1335  10.3%  30.6   10s
H 6612  3382                    13127.343255 11782.1335  10.2%  30.3   10s
H 9293  5516                    13126.343255 11782.1335  10.2%  27.4   11s
H 9986  6435                    13126.324186 11782.1335  10.2%  27.3   12s
H11350  7014                    13124.324186 11782.1335  10.2%  26.8   14s
H11353  6490                    12887.266976 11782.1335  8.58%  26.8   14s
H11362  6579                    12866.266976 11782.1335  8.43%  26.9   14s
H11432  6577                    12864.266976 11782.1335  8.41%  26.9   14s
 11572  6827 infeasible  112      12864.2670 11782.1335  8.41%  26.9   15s
H13705  8713                    12863.266976 11782.1335  8.40%  26.6   16s
H13933  8701                    12852.266976 11782.1335  8.33%  26.5   16s
H14094  8696                    12850.266976 11782.1335  8.31%  26.4   16s
H16761 10749                    12847.266976 11782.1335  8.29%  25.5   18s
H16824 10749                    12846.266976 11782.1335  8.28%  25.5   18s
H16916 10707                    12836.266976 11782.1335  8.21%  25.4   18s
 21472 13693 12248.1716   86  171 12836.2670 11782.1335  8.21%  24.5   21s

Cutting planes:
  Learned: 35
  Gomory: 49
  Cover: 155
  Implied bound: 6
  Projected implied bound: 1
  Clique: 93
  MIR: 30
  StrongCG: 7
  Flow cover: 52
  Inf proof: 5
  Zero half: 1
  Network: 4
  RLT: 8
  Relax-and-lift: 10

Explored 21522 nodes (541228 simplex iterations) in 21.07 seconds (22.58 work units)
Thread count was 8 (of 8 available processors)

Solution count 10: 12836.3 12846.3 12847.3 ... 13124.3

Solve interrupted
Best objective 1.283626697629e+04, best bound 1.178213348815e+04, gap 8.2121%

User-callback calls 50807, time in user-callback 0.07 sec

Statistics for modelBBUP_W:
  Linear constraint matrix    : 13310 Constrs, 5772 Vars, 48865 NZs
  Variable types              : 2317 Continuous,
3455 Integer (649 Binary)
  Matrix coefficient range    : [ 1, 384 ]
  Objective coefficient range : [ 1, 24755.9 ]
  Variable bound range        : [ 1, 199 ]
  RHS coefficient range       : [ 1, 549 ]

Gurobi 10.0.1 (mac64[arm]) logging started Fri Mar 29 14:43:54 2024

Set parameter LogFile to value "/Users/deniserings/Documents/zib/s-bahn-data/scripts/DeniseMA/processed/BBUP_W/original/LP_based/BBUP_W_subgradient_202403291428act_.log"
Gurobi Optimizer version 10.0.1 build v10.0.1rc0 (mac64[arm])

CPU model: Apple M2
Thread count: 8 physical cores, 8 logical processors, using up to 8 threads

Optimize a model with 13329 rows, 5772 columns and 48912 nonzeros
Model fingerprint: 0x20a049d7
Variable types: 2317 continuous, 3455 integer (649 binary)
Coefficient statistics:
  Matrix range     [1e+00, 4e+02]
  Objective range  [1e+00, 2e+04]
  Bounds range     [1e+00, 2e+02]
  RHS range        [1e+00, 5e+02]

User MIP start produced solution with objective 12564.5 (0.00s)
Loaded user MIP start with objective 12564.5

Presolve removed 6386 rows and 1978 columns
Presolve time: 0.07s
Presolved: 6943 rows, 3794 columns, 25607 nonzeros
Variable types: 1010 continuous, 2784 integer (2784 binary)

Root relaxation: objective 1.164086e+04, 2548 iterations, 0.01 seconds (0.01 work units)

    Nodes    |    Current Node    |     Objective Bounds      |     Work
 Expl Unexpl |  Obj  Depth IntInf | Incumbent    BestBd   Gap | It/Node Time

     0     0 11640.8580    0  168 12564.5016 11640.8580  7.35%     -    0s
     0     0 11640.8580    0  466 12564.5016 11640.8580  7.35%     -    0s
     0     0 11640.8580    0  467 12564.5016 11640.8580  7.35%     -    0s
     0     0 11640.8580    0  468 12564.5016 11640.8580  7.35%     -    0s
     0     0 11640.8580    0  159 12564.5016 11640.8580  7.35%     -    0s
     0     0 11640.8580    0  243 12564.5016 11640.8580  7.35%     -    0s
     0     0 11640.8580    0  187 12564.5016 11640.8580  7.35%     -    0s
     0     0 11640.8580    0  277 12564.5016 11640.8580  7.35%     -    0s
     0     0 11640.8580    0  119 12564.5016 11640.8580  7.35%     -    0s
     0     0 11640.8580    0  300 12564.5016 11640.8580  7.35%     -    0s
     0     0 11640.8580    0  131 12564.5016 11640.8580  7.35%     -    1s
     0     0 11640.8580    0  131 12564.5016 11640.8580  7.35%     -    1s
     0     0 11640.8580    0  105 12564.5016 11640.8580  7.35%     -    1s
     0     2 11640.8580    0  105 12564.5016 11640.8580  7.35%     -    1s
H  462   692                    12562.501583 11640.8580  7.34%   108    2s
H 1184  1839                    12558.501583 11640.8580  7.31%  61.9    3s
* 1997  1839             229    12544.501583 11640.8580  7.20%  48.9    3s
H 2297  2106                    12539.501583 11640.8580  7.17%  49.7    4s
  2529  2110 11858.8580   88  122 12539.5016 11640.8580  7.17%  48.3    5s
  5388  3250 infeasible   84      12539.5016 11640.8580  7.17%  39.1   10s
 12398  8169 11922.8580   42  171 12539.5016 11640.8580  7.17%  29.5   15s
 19591 12529 infeasible   76      12539.5016 11640.8580  7.17%  26.2   20s

Cutting planes:
  Learned: 25
  Gomory: 27
  Cover: 158
  Implied bound: 25
  Projected implied bound: 2
  Clique: 100
  MIR: 40
  StrongCG: 2
  Flow cover: 85
  GUB cover: 1
  Inf proof: 4
  Network: 5
  RLT: 7
  Relax-and-lift: 19

Explored 20156 nodes (547785 simplex iterations) in 20.23 seconds (21.07 work units)
Thread count was 8 (of 8 available processors)

Solution count 5: 12539.5 12544.5 12558.5 ... 12564.5

Solve interrupted
Best objective 1.253950158313e+04, best bound 1.164085804750e+04, gap 7.1665%

User-callback calls 47242, time in user-callback 0.07 sec

Statistics for modelBBUP_W:
  Linear constraint matrix    : 13329 Constrs, 5772 Vars, 48912 NZs
  Variable types              : 2317 Continuous,
3455 Integer (649 Binary)
  Matrix coefficient range    : [ 1, 384 ]
  Objective coefficient range : [ 1, 24484.1 ]
  Variable bound range        : [ 1, 199 ]
  RHS coefficient range       : [ 1, 549 ]

Gurobi 10.0.1 (mac64[arm]) logging started Fri Mar 29 14:44:14 2024

Set parameter LogFile to value "/Users/deniserings/Documents/zib/s-bahn-data/scripts/DeniseMA/processed/BBUP_W/original/LP_based/BBUP_W_subgradient_202403291428act_.log"
Gurobi Optimizer version 10.0.1 build v10.0.1rc0 (mac64[arm])

CPU model: Apple M2
Thread count: 8 physical cores, 8 logical processors, using up to 8 threads

Optimize a model with 13329 rows, 5772 columns and 48912 nonzeros
Model fingerprint: 0xabe3ffde
Variable types: 2317 continuous, 3455 integer (649 binary)
Coefficient statistics:
  Matrix range     [1e+00, 4e+02]
  Objective range  [1e+00, 3e+04]
  Bounds range     [1e+00, 2e+02]
  RHS range        [1e+00, 5e+02]

User MIP start produced solution with objective 16078.9 (0.00s)
Loaded user MIP start with objective 16078.9

Presolve removed 6386 rows and 1978 columns
Presolve time: 0.07s
Presolved: 6943 rows, 3794 columns, 25607 nonzeros
Variable types: 1010 continuous, 2784 integer (2784 binary)

Root relaxation: objective 1.265400e+04, 2569 iterations, 0.01 seconds (0.01 work units)

    Nodes    |    Current Node    |     Objective Bounds      |     Work
 Expl Unexpl |  Obj  Depth IntInf | Incumbent    BestBd   Gap | It/Node Time

     0     0 12654.0000    0  178 16078.9209 12654.0000  21.3%     -    0s
H    0     0                    15901.652142 12654.0000  20.4%     -    0s
     0     0 12655.7498    0  600 15901.6521 12655.7498  20.4%     -    0s
     0     0 12655.7498    0  572 15901.6521 12655.7498  20.4%     -    0s
     0     0 12655.7498    0  570 15901.6521 12655.7498  20.4%     -    0s
     0     0 12674.0000    0  637 15901.6521 12674.0000  20.3%     -    0s
     0     0 12674.0000    0  491 15901.6521 12674.0000  20.3%     -    0s
H    0     0                    15899.652142 12674.0000  20.3%     -    0s
     0     0 12674.0000    0  545 15899.6521 12674.0000  20.3%     -    0s
     0     0 12674.0000    0  488 15899.6521 12674.0000  20.3%     -    0s
     0     0 12675.6409    0  159 15899.6521 12675.6409  20.3%     -    0s
     0     0 12675.6409    0  311 15899.6521 12675.6409  20.3%     -    0s
     0     0 12675.7944    0  344 15899.6521 12675.7944  20.3%     -    0s
     0     0 12675.7944    0  344 15899.6521 12675.7944  20.3%     -    0s
     0     0 12675.8168    0  382 15899.6521 12675.8168  20.3%     -    0s
     0     0 12675.8168    0  381 15899.6521 12675.8168  20.3%     -    0s
     0     0 12675.8168    0  447 15899.6521 12675.8168  20.3%     -    0s
     0     0 12675.8168    0  142 15899.6521 12675.8168  20.3%     -    1s
H    0     0                    15870.652142 12675.8168  20.1%     -    1s
     0     0 12675.8168    0  132 15870.6521 12675.8168  20.1%     -    1s
     0     0 12686.0000    0  246 15870.6521 12686.0000  20.1%     -    1s
     0     0 12686.0000    0  245 15870.6521 12686.0000  20.1%     -    1s
     0     0 12686.0000    0  331 15870.6521 12686.0000  20.1%     -    1s
     0     0 12686.0000    0  300 15870.6521 12686.0000  20.1%     -    1s
     0     0 12686.0000    0  141 15870.6521 12686.0000  20.1%     -    1s
     0     0 12686.0000    0  177 15870.6521 12686.0000  20.1%     -    1s
H    0     0                    15849.652142 12686.0000  20.0%     -    1s
     0     0 12686.0000    0  110 15849.6521 12686.0000  20.0%     -    1s
     0     0 12686.0000    0  179 15849.6521 12686.0000  20.0%     -    1s
     0     0 12686.0000    0  137 15849.6521 12686.0000  20.0%     -    2s
     0     0 12686.0000    0  192 15849.6521 12686.0000  20.0%     -    2s
     0     0 12686.0000    0   89 15849.6521 12686.0000  20.0%     -    2s
     0     0 12686.0000    0  165 15849.6521 12686.0000  20.0%     -    2s
H    0     0                    15842.652142 12686.0000  19.9%     -    2s
     0     0 12686.0000    0   76 15842.6521 12686.0000  19.9%     -    2s
     0     0 12686.0000    0  100 15842.6521 12686.0000  19.9%     -    2s
     0     0 12686.0000    0  135 15842.6521 12686.0000  19.9%     -    2s
     0     0 12686.0000    0  104 15842.6521 12686.0000  19.9%     -    2s
     0     2 12686.0000    0   92 15842.6521 12686.0000  19.9%     -    2s
H  245   342                    15836.652142 12686.0000  19.9%  72.2    3s
H  321   342                    15798.652142 12686.0000  19.7%  64.0    3s
H  348   664                    15792.652142 12686.0000  19.7%  60.4    3s
H  754   750                    15764.652142 12686.0000  19.5%  39.9    3s
H  759   750                    15487.806298 12686.0000  18.1%  39.8    3s
H  900  1040                    15486.806298 12686.0000  18.1%  38.1    4s
H  927  1040                    15414.806298 12686.0000  17.7%  37.5    4s
H 1035  1040                    15296.383376 12686.0000  17.1%  35.8    4s
H 1210  1136                    15295.383376 12686.0000  17.1%  33.4    4s
  2294  1915 13311.4229   69  142 15295.3834 12686.0000  17.1%  27.0    5s
  2334  1943 12767.4886    9  133 15295.3834 12767.4886  16.5%  40.8   10s
  3594  2794 14501.6917   48  218 15295.3834 12767.4886  16.5%  42.7   15s
H 4759  3061                    15278.960454 12767.4886  16.4%  40.6   16s
H 6526  3785                    15256.383376 12767.4886  16.3%  38.9   19s
  6878  4960 12767.4886   44  216 15256.3834 12767.4886  16.3%  39.5   20s

Cutting planes:
  Learned: 54
  Gomory: 103
  Cover: 299
  Implied bound: 47
  Projected implied bound: 5
  Clique: 80
  MIR: 108
  StrongCG: 64
  Flow cover: 457
  GUB cover: 1
  Inf proof: 5
  Zero half: 1
  Network: 20
  RLT: 18
  Relax-and-lift: 34

Explored 8311 nodes (343707 simplex iterations) in 20.54 seconds (20.23 work units)
Thread count was 8 (of 8 available processors)

Solution count 10: 15256.4 15279 15295.4 ... 15798.7

Solve interrupted
Best objective 1.525638337598e+04, best bound 1.276748864865e+04, gap 16.3138%

User-callback calls 21032, time in user-callback 0.03 sec

Statistics for modelBBUP_W:
  Linear constraint matrix    : 13329 Constrs, 5772 Vars, 48912 NZs
  Variable types              : 2317 Continuous,
3455 Integer (649 Binary)
  Matrix coefficient range    : [ 1, 384 ]
  Objective coefficient range : [ 1, 28023.6 ]
  Variable bound range        : [ 1, 199 ]
  RHS coefficient range       : [ 1, 549 ]

Gurobi 10.0.1 (mac64[arm]) logging started Fri Mar 29 14:44:35 2024

Set parameter LogFile to value "/Users/deniserings/Documents/zib/s-bahn-data/scripts/DeniseMA/processed/BBUP_W/original/LP_based/BBUP_W_subgradient_202403291428act_.log"
Gurobi Optimizer version 10.0.1 build v10.0.1rc0 (mac64[arm])

CPU model: Apple M2
Thread count: 8 physical cores, 8 logical processors, using up to 8 threads

Optimize a model with 13335 rows, 5772 columns and 48924 nonzeros
Model fingerprint: 0x6645bfe0
Variable types: 2317 continuous, 3455 integer (649 binary)
Coefficient statistics:
  Matrix range     [1e+00, 4e+02]
  Objective range  [1e+00, 2e+04]
  Bounds range     [1e+00, 2e+02]
  RHS range        [1e+00, 5e+02]

User MIP start produced solution with objective 11805 (0.01s)
Loaded user MIP start with objective 11805

Presolve removed 6722 rows and 2282 columns
Presolve time: 0.10s
Presolved: 6613 rows, 3490 columns, 24989 nonzeros
Variable types: 963 continuous, 2527 integer (2527 binary)

Root relaxation: objective 1.133200e+04, 2168 iterations, 0.01 seconds (0.01 work units)

    Nodes    |    Current Node    |     Objective Bounds      |     Work
 Expl Unexpl |  Obj  Depth IntInf | Incumbent    BestBd   Gap | It/Node Time

     0     0 11332.0000    0  143 11805.0000 11332.0000  4.01%     -    0s
     0     0 11332.0000    0  500 11805.0000 11332.0000  4.01%     -    0s
     0     0 11332.0000    0  494 11805.0000 11332.0000  4.01%     -    0s
H    0     0                    11801.000000 11332.0000  3.97%     -    0s
     0     0 11332.0000    0  172 11801.0000 11332.0000  3.97%     -    0s
     0     0 11332.0000    0  256 11801.0000 11332.0000  3.97%     -    0s
     0     0 11332.0000    0  101 11801.0000 11332.0000  3.97%     -    0s
     0     0 11332.0000    0  212 11801.0000 11332.0000  3.97%     -    0s
     0     0 11332.0000    0   86 11801.0000 11332.0000  3.97%     -    0s
     0     0 11332.0000    0  191 11801.0000 11332.0000  3.97%     -    1s
     0     0 11332.0000    0  140 11801.0000 11332.0000  3.97%     -    1s
     0     0 11332.0000    0  238 11801.0000 11332.0000  3.97%     -    1s
     0     0 11332.0000    0  135 11801.0000 11332.0000  3.97%     -    1s
     0     0 11332.0000    0  134 11801.0000 11332.0000  3.97%     -    1s
     0     2 11332.0000    0  134 11801.0000 11332.0000  3.97%     -    1s
H  133   139                    11790.000000 11350.0000  3.73%  72.0    1s
H  488   406                    11761.000000 11350.0000  3.49%  47.1    2s
H 1231  1019                    11755.000000 11350.0000  3.45%  34.9    2s
H 2624  1718                    11753.000000 11355.0000  3.39%  31.8    4s
  3118  2252 11388.0000   38  218 11753.0000 11355.0000  3.39%  30.4    5s
* 3236  2154             183    11747.000000 11355.0000  3.34%  29.8    5s
H 3743  2209                    11739.000000 11355.0000  3.27%  28.6    5s
H 3834  2124                    11737.000000 11355.0000  3.25%  28.3    5s
H 4022  2007                    11725.000000 11355.0000  3.16%  27.8    5s
H 4878  2777                    11719.000000 11355.0000  3.11%  26.9    5s
H 9087  5382                    11715.000000 11355.0000  3.07%  22.5    7s
 14528  9462 11536.0000   88  230 11715.0000 11355.0000  3.07%  21.3   10s
 25865 16689 11355.0000   49  211 11715.0000 11355.0000  3.07%  19.7   15s
 29272 18693 11483.0000   65  248 11715.0000 11355.8267  3.07%  19.5   20s

Cutting planes:
  Learned: 35
  Gomory: 163
  Cover: 28
  Implied bound: 21
  Projected implied bound: 8
  Clique: 8
  MIR: 31
  StrongCG: 13
  Flow cover: 152
  Zero half: 2
  Network: 4
  RLT: 5
  Relax-and-lift: 11

Explored 29272 nodes (590384 simplex iterations) in 20.12 seconds (19.86 work units)
Thread count was 8 (of 8 available processors)

Solution count 10: 11715 11719 11725 ... 11790

Solve interrupted
Best objective 1.171500000000e+04, best bound 1.135582670520e+04, gap 3.0659%

User-callback calls 66059, time in user-callback 0.09 sec

Statistics for modelBBUP_W:
  Linear constraint matrix    : 13335 Constrs, 5772 Vars, 48924 NZs
  Variable types              : 2317 Continuous,
3455 Integer (649 Binary)
  Matrix coefficient range    : [ 1, 384 ]
  Objective coefficient range : [ 1, 24572.2 ]
  Variable bound range        : [ 1, 199 ]
  RHS coefficient range       : [ 1, 549 ]

Gurobi 10.0.1 (mac64[arm]) logging started Fri Mar 29 14:44:56 2024

Set parameter LogFile to value "/Users/deniserings/Documents/zib/s-bahn-data/scripts/DeniseMA/processed/BBUP_W/original/LP_based/BBUP_W_subgradient_202403291428act_.log"
Gurobi Optimizer version 10.0.1 build v10.0.1rc0 (mac64[arm])

CPU model: Apple M2
Thread count: 8 physical cores, 8 logical processors, using up to 8 threads

Optimize a model with 13335 rows, 5772 columns and 48924 nonzeros
Model fingerprint: 0x23a949fd
Variable types: 2317 continuous, 3455 integer (649 binary)
Coefficient statistics:
  Matrix range     [1e+00, 4e+02]
  Objective range  [1e+00, 5e+04]
  Bounds range     [1e+00, 2e+02]
  RHS range        [1e+00, 5e+02]

User MIP start produced solution with objective 33393.5 (0.00s)
Loaded user MIP start with objective 33393.5

Presolve removed 6722 rows and 2282 columns
Presolve time: 0.09s
Presolved: 6613 rows, 3490 columns, 24989 nonzeros
Variable types: 963 continuous, 2527 integer (2527 binary)

Root relaxation: objective 1.267800e+04, 2281 iterations, 0.02 seconds (0.02 work units)

    Nodes    |    Current Node    |     Objective Bounds      |     Work
 Expl Unexpl |  Obj  Depth IntInf | Incumbent    BestBd   Gap | It/Node Time

     0     0 12678.0000    0  160 33393.4542 12678.0000  62.0%     -    0s
H    0     0                    30800.647384 12678.0000  58.8%     -    0s
     0     0 12678.1434    0  478 30800.6474 12678.1434  58.8%     -    0s
H    0     0                    30792.647384 12678.1434  58.8%     -    0s
     0     0 12678.1434    0  476 30792.6474 12678.1434  58.8%     -    0s
     0     0 12686.1078    0  543 30792.6474 12686.1078  58.8%     -    0s
     0     0 12686.1078    0  498 30792.6474 12686.1078  58.8%     -    0s
     0     0 12686.1372    0  507 30792.6474 12686.1372  58.8%     -    0s
     0     0 12686.1372    0  492 30792.6474 12686.1372  58.8%     -    0s
     0     0 12686.1372    0  566 30792.6474 12686.1372  58.8%     -    0s
     0     0 12686.1372    0  129 30792.6474 12686.1372  58.8%     -    0s
     0     0 12686.1372    0  132 30792.6474 12686.1372  58.8%     -    0s
     0     0 12692.1346    0  306 30792.6474 12692.1346  58.8%     -    0s
     0     0 12692.1346    0  269 30792.6474 12692.1346  58.8%     -    1s
     0     0 12693.8400    0  372 30792.6474 12693.8400  58.8%     -    1s
     0     0 12693.9205    0  371 30792.6474 12693.9205  58.8%     -    1s
     0     0 12693.9205    0  372 30792.6474 12693.9205  58.8%     -    1s
H    0     0                    28403.840615 12693.9205  55.3%     -    1s
     0     0 12693.9205    0  424 28403.8406 12693.9205  55.3%     -    1s
     0     0 12693.9205    0  328 28403.8406 12693.9205  55.3%     -    1s
     0     0 12693.9205    0  380 28403.8406 12693.9205  55.3%     -    1s
     0     0 12693.9205    0  403 28403.8406 12693.9205  55.3%     -    1s
     0     0 12693.9205    0  118 28403.8406 12693.9205  55.3%     -    1s
     0     0 12693.9205    0  215 28403.8406 12693.9205  55.3%     -    1s
     0     0 12693.9205    0   75 28403.8406 12693.9205  55.3%     -    1s
     0     0 12693.9205    0  164 28403.8406 12693.9205  55.3%     -    1s
     0     0 12693.9205    0   83 28403.8406 12693.9205  55.3%     -    2s
     0     0 12693.9205    0  141 28403.8406 12693.9205  55.3%     -    2s
     0     0 12693.9205    0  145 28403.8406 12693.9205  55.3%     -    2s
     0     0 12693.9205    0  121 28403.8406 12693.9205  55.3%     -    2s
     0     2 12693.9205    0  121 28403.8406 12693.9205  55.3%     -    2s
H  119   122                    28395.840615 12719.9205  55.2%  73.9    2s
H  198   163                    28393.840615 12719.9205  55.2%  55.2    2s
H  199   163                    28392.840615 12719.9205  55.2%  55.3    2s
H  237   188                    26216.033846 12719.9205  51.5%  54.2    3s
H  238   193                    26178.033846 12719.9205  51.4%  54.0    3s
H  244   193                    24267.227077 12719.9205  47.6%  54.4    3s
H 1250  1025                    24254.227077 12719.9205  47.6%  31.4    3s
H 1259  1033                    24232.227077 12719.9205  47.5%  31.4    4s
H 1261  1033                    21954.420308 12719.9205  42.1%  31.4    4s
  1465  1172 15529.8068   47  172 21954.4203 12734.0712  42.0%  29.9    5s
H 2255  1580                    20600.613538 12767.4483  38.0%  43.6    9s
H 2361  1399                    20582.613538 12767.4483  38.0%  42.4   10s
H 2362  1291                    17943.806769 12767.4483  28.8%  42.4   10s
H 2378  1088                    15215.000000 12767.4483  16.1%  42.5   10s
H 3571  1358                    15154.000000 12767.7981  15.7%  38.9   14s
H 3586  1298                    15116.000000 12767.7981  15.5%  39.2   14s
H 3590  1257                    15052.000000 12767.7981  15.2%  39.2   16s
H 3602  1211                    15050.000000 12767.7981  15.2%  39.2   16s
  7346  4554 13232.0000   40  157 15050.0000 12768.0000  15.2%  35.9   20s

Cutting planes:
  Learned: 39
  Gomory: 91
  Cover: 280
  Implied bound: 38
  Projected implied bound: 5
  Clique: 79
  MIR: 63
  StrongCG: 19
  Flow cover: 172
  GUB cover: 3
  Inf proof: 8
  Zero half: 3
  Network: 18
  RLT: 24
  Relax-and-lift: 22

Explored 8863 nodes (330201 simplex iterations) in 20.69 seconds (21.33 work units)
Thread count was 8 (of 8 available processors)

Solution count 10: 15050 15052 15116 ... 24232.2

Solve interrupted
Best objective 1.505000000000e+04, best bound 1.276800000000e+04, gap 15.1628%

User-callback calls 22996, time in user-callback 0.05 sec

Statistics for modelBBUP_W:
  Linear constraint matrix    : 13335 Constrs, 5772 Vars, 48924 NZs
  Variable types              : 2317 Continuous,
3455 Integer (649 Binary)
  Matrix coefficient range    : [ 1, 384 ]
  Objective coefficient range : [ 1, 46250.6 ]
  Variable bound range        : [ 1, 199 ]
  RHS coefficient range       : [ 1, 549 ]
